AES/1_5_4/ssaes_r1-20_c5_rw1_e4_f0_k1-20_aes_canon_box_aes_mc_bidirectional/ExperimentMinisat_r15_k6cnf_2011-10-29-162006/Result
WARNING: for repeatability, setting FPU to use double precision
============================[ Problem Statistics ]=============================
|                                                                             |
|  Number of variables:          2820                                         |
|  Number of clauses:           16730                                         |
|  Parse time:                   0.01 s                                       |
|  Eliminated clauses:           0.03 Mb                                      |
|  Simplification time:          0.01 s                                       |
|                                                                             |
=============================[ Search Statistics ]==============================
| Conflicts  |          ORIGINAL         |          LEARNT          | Progress |
|            |    Vars  Clauses Literals |    Limit  Clauses Lit/Cl |          |
================================================================================
|        100 |    2310    15230    47270 |     5584      100     38 |  3.546 % |
|        250 |    2310    15230    47270 |     6142      250     42 |  3.546 % |
|        475 |    2310    15230    47270 |     6757      475     42 |  3.546 % |
|        812 |    2310    15230    47270 |     7432      812     41 |  3.546 % |
|       1318 |    2310    15230    47270 |     8176     1318     41 |  3.546 % |
|       2077 |    2310    15230    47270 |     8993     2077     39 |  3.546 % |
|       3216 |    2310    15230    47270 |     9892     3216     38 |  3.546 % |
|       4924 |    2310    15230    47270 |    10882     4924     37 |  3.546 % |
|       7486 |    2310    15230    47270 |    11970     7486     38 |  3.546 % |
|      11330 |    2310    15230    47270 |    13167    11330     38 |  3.546 % |
|      17096 |    2310    15230    47270 |    14484    10380     34 |  3.546 % |
|      25745 |    2310    15230    47270 |    15932    11686     31 |  3.546 % |
|      38719 |    2310    15230    47270 |    17526     8497     27 |  3.546 % |
|      58180 |    2310    15230    47270 |    19278    10283     27 |  3.546 % |
|      87372 |    2310    15230    47270 |    21206    10288     25 |  3.546 % |
|     131161 |    2310    15230    47270 |    23327    11223     25 |  3.546 % |
|     196845 |    2310    15230    47270 |    25659    18066     27 |  3.546 % |
|     295371 |    2310    15230    47270 |    28225    13218     26 |  3.546 % |
|     443160 |    2310    15230    47270 |    31048    18801     27 |  3.546 % |
|     664843 |    2310    15230    47270 |    34153    18347     24 |  3.546 % |
|     997368 |    2310    15230    47270 |    37568    19210     21 |  3.546 % |
|    1496156 |    2310    15230    47270 |    41325    33113     26 |  3.546 % |
|    2244338 |    2310    15230    47270 |    45458    21326     21 |  3.546 % |
|    3366612 |    2310    15230    47270 |    50003    19541     23 |  3.546 % |
===============================================================================
restarts              : 6506
conflicts             : 3720488        (4328 /sec)
decisions             : 4073708        (0.00 % random) (4738 /sec)
propagations          : 4562887833     (5307403 /sec)
conflict literals     : 105083789      (69.61 % deleted)
Memory used           : 24.00 MB
CPU time              : 859.721 s

SATISFIABLE
